JOBS = 1..4;
MACHINES = 1..5;
SPEED = 2;
time = array3d(JOBS,MACHINES,1..SPEED,[234,42,179,32,72,12,58,10,77,13,247,44,166,29,98,17,128,23,60,10,100,18,113,20,252,45,240,43,204,36,172,31,206,37,35,6,212,38,220,39]);
energy = array3d(JOBS,MACHINES,1..SPEED,[9,65,16,72,48,88,55,90,46,87,8,64,19,74,37,84,27,79,54,90,36,83,32,81,8,63,9,65,13,69,17,73,12,69,70,94,12,68,11,67]);
precedence = array2d(JOBS,MACHINES,[4,3,0,1,2,2,4,3,0,1,4,1,2,3,0,0,3,2,1,4]);
ME = 1;
TE = 187;
st_old = array2d(JOBS,MACHINES,[444,265,0,128,188,188,535,437,0,128,678,36,150,402,0,0,444,402,186,481]);
SpeedScaling = array2d(JOBS,MACHINES,[1,1,1,1,1,1,1,1,1,1,2,1,1,1,2,1,2,1,1,1]);
